problems/csplib-prob049/set_partition_simple-models/01_noch_lvlPruned/O0/minion/model_1_1-32-solution000001.eprime-solution
language ESSENCE' 1.0

letting setA_Occurrence be
        [false, false, false, false, true, true, true, true, false, true, true, true, true, true, true, false, true,
         false, false, false, false, false, false, true, false, false, false, false, true, true, true, true;
             int(1..32)]
letting setB_Occurrence be
        [true, true, true, true, false, false, false, false, true, false, false, false, false, false, false, true,
         false, true, true, true, true, true, true, false, true, true, true, true, false, false, false, false;
             int(1..32)]
