problems/csplib-prob049/set_partition_simple-models/noch/O2/minion/model_1_1-32-solution000001.solution
language Essence 1.3

letting setA be {5, 6, 7, 8, 10, 11, 12, 13, 14, 15, 17, 24, 29, 30, 31, 32}
letting setB be {1, 2, 3, 4, 9, 16, 18, 19, 20, 21, 22, 23, 25, 26, 27, 28}
